36197287222964924515010,1,1,2,05,1,1,2,02,1,1,2,08,14,1,2,06,9,1,2,011,14,1,2,010,5,1,2,04,9,1,2,06,12,1,2,014,9,1,2,012,5,1,2,06,10,1,2,09,4,1,2,01,13,1,2,04,12,1,2,010,6,1,2,03,3,1,2,014,11,1,2,09,12,1,2,09,2,1,2,04,1,1,2,02,9,1,2,01,7,1,2,08,7,1,2,01,13,1,2,09,13,1,2,03,5,1,2,07,9,1,2,09,9,1,2,01,9,1,2,07,10,1,2,08,4,1,2,010,9,1,2,08,3,1,2,010,6,1,2,012,4,1,2,01,7,1,2,02,3,1,2,01,4,1,2,014,12,1,2,01,3,1,2,014,13,1,2,06,1,1,2,013,1,1,2,010,3,1,2,011,8,1,2,06,14,1,2,07,1,1,2,010,10,1,2,03,13,1,2,0